(set-logic QF_LIA)
(set-option :produce-models true)
(declare-fun index_0_0_0 () Bool)
(declare-fun index_0_0_1 () Bool)
(declare-fun index_0_0_2 () Bool)
(declare-fun index_0_0_3 () Bool)
(declare-fun home_0_0 () Int)
(declare-fun away_0_0 () Int)
(declare-fun index_0_1_0 () Bool)
(declare-fun index_0_1_1 () Bool)
(declare-fun index_0_1_2 () Bool)
(declare-fun index_0_1_3 () Bool)
(declare-fun home_0_1 () Int)
(declare-fun away_0_1 () Int)
(declare-fun index_0_2_0 () Bool)
(declare-fun index_0_2_1 () Bool)
(declare-fun index_0_2_2 () Bool)
(declare-fun index_0_2_3 () Bool)
(declare-fun home_0_2 () Int)
(declare-fun away_0_2 () Int)
(declare-fun index_0_3_0 () Bool)
(declare-fun index_0_3_1 () Bool)
(declare-fun index_0_3_2 () Bool)
(declare-fun index_0_3_3 () Bool)
(declare-fun home_0_3 () Int)
(declare-fun away_0_3 () Int)
(declare-fun index_0_4_0 () Bool)
(declare-fun index_0_4_1 () Bool)
(declare-fun index_0_4_2 () Bool)
(declare-fun index_0_4_3 () Bool)
(declare-fun home_0_4 () Int)
(declare-fun away_0_4 () Int)
(declare-fun index_0_5_0 () Bool)
(declare-fun index_0_5_1 () Bool)
(declare-fun index_0_5_2 () Bool)
(declare-fun index_0_5_3 () Bool)
(declare-fun home_0_5 () Int)
(declare-fun away_0_5 () Int)
(declare-fun index_0_6_0 () Bool)
(declare-fun index_0_6_1 () Bool)
(declare-fun index_0_6_2 () Bool)
(declare-fun index_0_6_3 () Bool)
(declare-fun home_0_6 () Int)
(declare-fun away_0_6 () Int)
(declare-fun index_1_0_0 () Bool)
(declare-fun index_1_0_1 () Bool)
(declare-fun index_1_0_2 () Bool)
(declare-fun index_1_0_3 () Bool)
(declare-fun home_1_0 () Int)
(declare-fun away_1_0 () Int)
(declare-fun index_1_1_0 () Bool)
(declare-fun index_1_1_1 () Bool)
(declare-fun index_1_1_2 () Bool)
(declare-fun index_1_1_3 () Bool)
(declare-fun home_1_1 () Int)
(declare-fun away_1_1 () Int)
(declare-fun index_1_2_0 () Bool)
(declare-fun index_1_2_1 () Bool)
(declare-fun index_1_2_2 () Bool)
(declare-fun index_1_2_3 () Bool)
(declare-fun home_1_2 () Int)
(declare-fun away_1_2 () Int)
(declare-fun index_1_3_0 () Bool)
(declare-fun index_1_3_1 () Bool)
(declare-fun index_1_3_2 () Bool)
(declare-fun index_1_3_3 () Bool)
(declare-fun home_1_3 () Int)
(declare-fun away_1_3 () Int)
(declare-fun index_1_4_0 () Bool)
(declare-fun index_1_4_1 () Bool)
(declare-fun index_1_4_2 () Bool)
(declare-fun index_1_4_3 () Bool)
(declare-fun home_1_4 () Int)
(declare-fun away_1_4 () Int)
(declare-fun index_1_5_0 () Bool)
(declare-fun index_1_5_1 () Bool)
(declare-fun index_1_5_2 () Bool)
(declare-fun index_1_5_3 () Bool)
(declare-fun home_1_5 () Int)
(declare-fun away_1_5 () Int)
(declare-fun index_1_6_0 () Bool)
(declare-fun index_1_6_1 () Bool)
(declare-fun index_1_6_2 () Bool)
(declare-fun index_1_6_3 () Bool)
(declare-fun home_1_6 () Int)
(declare-fun away_1_6 () Int)
(declare-fun index_2_0_0 () Bool)
(declare-fun index_2_0_1 () Bool)
(declare-fun index_2_0_2 () Bool)
(declare-fun index_2_0_3 () Bool)
(declare-fun home_2_0 () Int)
(declare-fun away_2_0 () Int)
(declare-fun index_2_1_0 () Bool)
(declare-fun index_2_1_1 () Bool)
(declare-fun index_2_1_2 () Bool)
(declare-fun index_2_1_3 () Bool)
(declare-fun home_2_1 () Int)
(declare-fun away_2_1 () Int)
(declare-fun index_2_2_0 () Bool)
(declare-fun index_2_2_1 () Bool)
(declare-fun index_2_2_2 () Bool)
(declare-fun index_2_2_3 () Bool)
(declare-fun home_2_2 () Int)
(declare-fun away_2_2 () Int)
(declare-fun index_2_3_0 () Bool)
(declare-fun index_2_3_1 () Bool)
(declare-fun index_2_3_2 () Bool)
(declare-fun index_2_3_3 () Bool)
(declare-fun home_2_3 () Int)
(declare-fun away_2_3 () Int)
(declare-fun index_2_4_0 () Bool)
(declare-fun index_2_4_1 () Bool)
(declare-fun index_2_4_2 () Bool)
(declare-fun index_2_4_3 () Bool)
(declare-fun home_2_4 () Int)
(declare-fun away_2_4 () Int)
(declare-fun index_2_5_0 () Bool)
(declare-fun index_2_5_1 () Bool)
(declare-fun index_2_5_2 () Bool)
(declare-fun index_2_5_3 () Bool)
(declare-fun home_2_5 () Int)
(declare-fun away_2_5 () Int)
(declare-fun index_2_6_0 () Bool)
(declare-fun index_2_6_1 () Bool)
(declare-fun index_2_6_2 () Bool)
(declare-fun index_2_6_3 () Bool)
(declare-fun home_2_6 () Int)
(declare-fun away_2_6 () Int)
(declare-fun index_3_0_0 () Bool)
(declare-fun index_3_0_1 () Bool)
(declare-fun index_3_0_2 () Bool)
(declare-fun index_3_0_3 () Bool)
(declare-fun home_3_0 () Int)
(declare-fun away_3_0 () Int)
(declare-fun index_3_1_0 () Bool)
(declare-fun index_3_1_1 () Bool)
(declare-fun index_3_1_2 () Bool)
(declare-fun index_3_1_3 () Bool)
(declare-fun home_3_1 () Int)
(declare-fun away_3_1 () Int)
(declare-fun index_3_2_0 () Bool)
(declare-fun index_3_2_1 () Bool)
(declare-fun index_3_2_2 () Bool)
(declare-fun index_3_2_3 () Bool)
(declare-fun home_3_2 () Int)
(declare-fun away_3_2 () Int)
(declare-fun index_3_3_0 () Bool)
(declare-fun index_3_3_1 () Bool)
(declare-fun index_3_3_2 () Bool)
(declare-fun index_3_3_3 () Bool)
(declare-fun home_3_3 () Int)
(declare-fun away_3_3 () Int)
(declare-fun index_3_4_0 () Bool)
(declare-fun index_3_4_1 () Bool)
(declare-fun index_3_4_2 () Bool)
(declare-fun index_3_4_3 () Bool)
(declare-fun home_3_4 () Int)
(declare-fun away_3_4 () Int)
(declare-fun index_3_5_0 () Bool)
(declare-fun index_3_5_1 () Bool)
(declare-fun index_3_5_2 () Bool)
(declare-fun index_3_5_3 () Bool)
(declare-fun home_3_5 () Int)
(declare-fun away_3_5 () Int)
(declare-fun index_3_6_0 () Bool)
(declare-fun index_3_6_1 () Bool)
(declare-fun index_3_6_2 () Bool)
(declare-fun index_3_6_3 () Bool)
(declare-fun home_3_6 () Int)
(declare-fun away_3_6 () Int)
(assert (= (+ (ite index_0_0_0 1 0) (ite index_0_0_1 1 0) (ite index_0_0_2 1 0) (ite index_0_0_3 1 0)) 1))
(assert (= (+ (ite index_0_1_0 1 0) (ite index_0_1_1 1 0) (ite index_0_1_2 1 0) (ite index_0_1_3 1 0)) 1))
(assert (= (+ (ite index_0_2_0 1 0) (ite index_0_2_1 1 0) (ite index_0_2_2 1 0) (ite index_0_2_3 1 0)) 1))
(assert (= (+ (ite index_0_3_0 1 0) (ite index_0_3_1 1 0) (ite index_0_3_2 1 0) (ite index_0_3_3 1 0)) 1))
(assert (= (+ (ite index_0_4_0 1 0) (ite index_0_4_1 1 0) (ite index_0_4_2 1 0) (ite index_0_4_3 1 0)) 1))
(assert (= (+ (ite index_0_5_0 1 0) (ite index_0_5_1 1 0) (ite index_0_5_2 1 0) (ite index_0_5_3 1 0)) 1))
(assert (= (+ (ite index_0_6_0 1 0) (ite index_0_6_1 1 0) (ite index_0_6_2 1 0) (ite index_0_6_3 1 0)) 1))
(assert (= (+ (ite index_1_0_0 1 0) (ite index_1_0_1 1 0) (ite index_1_0_2 1 0) (ite index_1_0_3 1 0)) 1))
(assert (= (+ (ite index_1_1_0 1 0) (ite index_1_1_1 1 0) (ite index_1_1_2 1 0) (ite index_1_1_3 1 0)) 1))
(assert (= (+ (ite index_1_2_0 1 0) (ite index_1_2_1 1 0) (ite index_1_2_2 1 0) (ite index_1_2_3 1 0)) 1))
(assert (= (+ (ite index_1_3_0 1 0) (ite index_1_3_1 1 0) (ite index_1_3_2 1 0) (ite index_1_3_3 1 0)) 1))
(assert (= (+ (ite index_1_4_0 1 0) (ite index_1_4_1 1 0) (ite index_1_4_2 1 0) (ite index_1_4_3 1 0)) 1))
(assert (= (+ (ite index_1_5_0 1 0) (ite index_1_5_1 1 0) (ite index_1_5_2 1 0) (ite index_1_5_3 1 0)) 1))
(assert (= (+ (ite index_1_6_0 1 0) (ite index_1_6_1 1 0) (ite index_1_6_2 1 0) (ite index_1_6_3 1 0)) 1))
(assert (= (+ (ite index_2_0_0 1 0) (ite index_2_0_1 1 0) (ite index_2_0_2 1 0) (ite index_2_0_3 1 0)) 1))
(assert (= (+ (ite index_2_1_0 1 0) (ite index_2_1_1 1 0) (ite index_2_1_2 1 0) (ite index_2_1_3 1 0)) 1))
(assert (= (+ (ite index_2_2_0 1 0) (ite index_2_2_1 1 0) (ite index_2_2_2 1 0) (ite index_2_2_3 1 0)) 1))
(assert (= (+ (ite index_2_3_0 1 0) (ite index_2_3_1 1 0) (ite index_2_3_2 1 0) (ite index_2_3_3 1 0)) 1))
(assert (= (+ (ite index_2_4_0 1 0) (ite index_2_4_1 1 0) (ite index_2_4_2 1 0) (ite index_2_4_3 1 0)) 1))
(assert (= (+ (ite index_2_5_0 1 0) (ite index_2_5_1 1 0) (ite index_2_5_2 1 0) (ite index_2_5_3 1 0)) 1))
(assert (= (+ (ite index_2_6_0 1 0) (ite index_2_6_1 1 0) (ite index_2_6_2 1 0) (ite index_2_6_3 1 0)) 1))
(assert (= (+ (ite index_3_0_0 1 0) (ite index_3_0_1 1 0) (ite index_3_0_2 1 0) (ite index_3_0_3 1 0)) 1))
(assert (= (+ (ite index_3_1_0 1 0) (ite index_3_1_1 1 0) (ite index_3_1_2 1 0) (ite index_3_1_3 1 0)) 1))
(assert (= (+ (ite index_3_2_0 1 0) (ite index_3_2_1 1 0) (ite index_3_2_2 1 0) (ite index_3_2_3 1 0)) 1))
(assert (= (+ (ite index_3_3_0 1 0) (ite index_3_3_1 1 0) (ite index_3_3_2 1 0) (ite index_3_3_3 1 0)) 1))
(assert (= (+ (ite index_3_4_0 1 0) (ite index_3_4_1 1 0) (ite index_3_4_2 1 0) (ite index_3_4_3 1 0)) 1))
(assert (= (+ (ite index_3_5_0 1 0) (ite index_3_5_1 1 0) (ite index_3_5_2 1 0) (ite index_3_5_3 1 0)) 1))
(assert (= (+ (ite index_3_6_0 1 0) (ite index_3_6_1 1 0) (ite index_3_6_2 1 0) (ite index_3_6_3 1 0)) 1))
(assert (= (+ (ite index_0_0_0 1 0) (ite index_1_0_0 1 0) (ite index_2_0_0 1 0) (ite index_3_0_0 1 0)) 1))
(assert (= (+ (ite index_0_1_0 1 0) (ite index_1_1_0 1 0) (ite index_2_1_0 1 0) (ite index_3_1_0 1 0)) 1))
(assert (= (+ (ite index_0_2_0 1 0) (ite index_1_2_0 1 0) (ite index_2_2_0 1 0) (ite index_3_2_0 1 0)) 1))
(assert (= (+ (ite index_0_3_0 1 0) (ite index_1_3_0 1 0) (ite index_2_3_0 1 0) (ite index_3_3_0 1 0)) 1))
(assert (= (+ (ite index_0_4_0 1 0) (ite index_1_4_0 1 0) (ite index_2_4_0 1 0) (ite index_3_4_0 1 0)) 1))
(assert (= (+ (ite index_0_5_0 1 0) (ite index_1_5_0 1 0) (ite index_2_5_0 1 0) (ite index_3_5_0 1 0)) 1))
(assert (= (+ (ite index_0_6_0 1 0) (ite index_1_6_0 1 0) (ite index_2_6_0 1 0) (ite index_3_6_0 1 0)) 1))
(assert (= (+ (ite index_0_0_1 1 0) (ite index_1_0_1 1 0) (ite index_2_0_1 1 0) (ite index_3_0_1 1 0)) 1))
(assert (= (+ (ite index_0_1_1 1 0) (ite index_1_1_1 1 0) (ite index_2_1_1 1 0) (ite index_3_1_1 1 0)) 1))
(assert (= (+ (ite index_0_2_1 1 0) (ite index_1_2_1 1 0) (ite index_2_2_1 1 0) (ite index_3_2_1 1 0)) 1))
(assert (= (+ (ite index_0_3_1 1 0) (ite index_1_3_1 1 0) (ite index_2_3_1 1 0) (ite index_3_3_1 1 0)) 1))
(assert (= (+ (ite index_0_4_1 1 0) (ite index_1_4_1 1 0) (ite index_2_4_1 1 0) (ite index_3_4_1 1 0)) 1))
(assert (= (+ (ite index_0_5_1 1 0) (ite index_1_5_1 1 0) (ite index_2_5_1 1 0) (ite index_3_5_1 1 0)) 1))
(assert (= (+ (ite index_0_6_1 1 0) (ite index_1_6_1 1 0) (ite index_2_6_1 1 0) (ite index_3_6_1 1 0)) 1))
(assert (= (+ (ite index_0_0_2 1 0) (ite index_1_0_2 1 0) (ite index_2_0_2 1 0) (ite index_3_0_2 1 0)) 1))
(assert (= (+ (ite index_0_1_2 1 0) (ite index_1_1_2 1 0) (ite index_2_1_2 1 0) (ite index_3_1_2 1 0)) 1))
(assert (= (+ (ite index_0_2_2 1 0) (ite index_1_2_2 1 0) (ite index_2_2_2 1 0) (ite index_3_2_2 1 0)) 1))
(assert (= (+ (ite index_0_3_2 1 0) (ite index_1_3_2 1 0) (ite index_2_3_2 1 0) (ite index_3_3_2 1 0)) 1))
(assert (= (+ (ite index_0_4_2 1 0) (ite index_1_4_2 1 0) (ite index_2_4_2 1 0) (ite index_3_4_2 1 0)) 1))
(assert (= (+ (ite index_0_5_2 1 0) (ite index_1_5_2 1 0) (ite index_2_5_2 1 0) (ite index_3_5_2 1 0)) 1))
(assert (= (+ (ite index_0_6_2 1 0) (ite index_1_6_2 1 0) (ite index_2_6_2 1 0) (ite index_3_6_2 1 0)) 1))
(assert (= (+ (ite index_0_0_3 1 0) (ite index_1_0_3 1 0) (ite index_2_0_3 1 0) (ite index_3_0_3 1 0)) 1))
(assert (= (+ (ite index_0_1_3 1 0) (ite index_1_1_3 1 0) (ite index_2_1_3 1 0) (ite index_3_1_3 1 0)) 1))
(assert (= (+ (ite index_0_2_3 1 0) (ite index_1_2_3 1 0) (ite index_2_2_3 1 0) (ite index_3_2_3 1 0)) 1))
(assert (= (+ (ite index_0_3_3 1 0) (ite index_1_3_3 1 0) (ite index_2_3_3 1 0) (ite index_3_3_3 1 0)) 1))
(assert (= (+ (ite index_0_4_3 1 0) (ite index_1_4_3 1 0) (ite index_2_4_3 1 0) (ite index_3_4_3 1 0)) 1))
(assert (= (+ (ite index_0_5_3 1 0) (ite index_1_5_3 1 0) (ite index_2_5_3 1 0) (ite index_3_5_3 1 0)) 1))
(assert (= (+ (ite index_0_6_3 1 0) (ite index_1_6_3 1 0) (ite index_2_6_3 1 0) (ite index_3_6_3 1 0)) 1))
(assert (or (and index_0_0_0 (= home_0_0 1) (= away_0_0 8)) (and index_0_0_1 (= home_0_0 2) (= away_0_0 7)) (and index_0_0_2 (= home_0_0 3) (= away_0_0 6)) (and index_0_0_3 (= home_0_0 4) (= away_0_0 5))))
(assert (or (and index_0_1_0 (= home_0_1 2) (= away_0_1 8)) (and index_0_1_1 (= home_0_1 1) (= away_0_1 3)) (and index_0_1_2 (= home_0_1 4) (= away_0_1 7)) (and index_0_1_3 (= home_0_1 5) (= away_0_1 6))))
(assert (or (and index_0_2_0 (= home_0_2 3) (= away_0_2 8)) (and index_0_2_1 (= home_0_2 2) (= away_0_2 4)) (and index_0_2_2 (= home_0_2 1) (= away_0_2 5)) (and index_0_2_3 (= home_0_2 6) (= away_0_2 7))))
(assert (or (and index_0_3_0 (= home_0_3 4) (= away_0_3 8)) (and index_0_3_1 (= home_0_3 3) (= away_0_3 5)) (and index_0_3_2 (= home_0_3 2) (= away_0_3 6)) (and index_0_3_3 (= home_0_3 1) (= away_0_3 7))))
(assert (or (and index_0_4_0 (= home_0_4 5) (= away_0_4 8)) (and index_0_4_1 (= home_0_4 4) (= away_0_4 6)) (and index_0_4_2 (= home_0_4 3) (= away_0_4 7)) (and index_0_4_3 (= home_0_4 1) (= away_0_4 2))))
(assert (or (and index_0_5_0 (= home_0_5 6) (= away_0_5 8)) (and index_0_5_1 (= home_0_5 5) (= away_0_5 7)) (and index_0_5_2 (= home_0_5 1) (= away_0_5 4)) (and index_0_5_3 (= home_0_5 2) (= away_0_5 3))))
(assert (or (and index_0_6_0 (= home_0_6 7) (= away_0_6 8)) (and index_0_6_1 (= home_0_6 1) (= away_0_6 6)) (and index_0_6_2 (= home_0_6 2) (= away_0_6 5)) (and index_0_6_3 (= home_0_6 3) (= away_0_6 4))))
(assert (or (and index_1_0_0 (= home_1_0 1) (= away_1_0 8)) (and index_1_0_1 (= home_1_0 2) (= away_1_0 7)) (and index_1_0_2 (= home_1_0 3) (= away_1_0 6)) (and index_1_0_3 (= home_1_0 4) (= away_1_0 5))))
(assert (or (and index_1_1_0 (= home_1_1 2) (= away_1_1 8)) (and index_1_1_1 (= home_1_1 1) (= away_1_1 3)) (and index_1_1_2 (= home_1_1 4) (= away_1_1 7)) (and index_1_1_3 (= home_1_1 5) (= away_1_1 6))))
(assert (or (and index_1_2_0 (= home_1_2 3) (= away_1_2 8)) (and index_1_2_1 (= home_1_2 2) (= away_1_2 4)) (and index_1_2_2 (= home_1_2 1) (= away_1_2 5)) (and index_1_2_3 (= home_1_2 6) (= away_1_2 7))))
(assert (or (and index_1_3_0 (= home_1_3 4) (= away_1_3 8)) (and index_1_3_1 (= home_1_3 3) (= away_1_3 5)) (and index_1_3_2 (= home_1_3 2) (= away_1_3 6)) (and index_1_3_3 (= home_1_3 1) (= away_1_3 7))))
(assert (or (and index_1_4_0 (= home_1_4 5) (= away_1_4 8)) (and index_1_4_1 (= home_1_4 4) (= away_1_4 6)) (and index_1_4_2 (= home_1_4 3) (= away_1_4 7)) (and index_1_4_3 (= home_1_4 1) (= away_1_4 2))))
(assert (or (and index_1_5_0 (= home_1_5 6) (= away_1_5 8)) (and index_1_5_1 (= home_1_5 5) (= away_1_5 7)) (and index_1_5_2 (= home_1_5 1) (= away_1_5 4)) (and index_1_5_3 (= home_1_5 2) (= away_1_5 3))))
(assert (or (and index_1_6_0 (= home_1_6 7) (= away_1_6 8)) (and index_1_6_1 (= home_1_6 1) (= away_1_6 6)) (and index_1_6_2 (= home_1_6 2) (= away_1_6 5)) (and index_1_6_3 (= home_1_6 3) (= away_1_6 4))))
(assert (or (and index_2_0_0 (= home_2_0 1) (= away_2_0 8)) (and index_2_0_1 (= home_2_0 2) (= away_2_0 7)) (and index_2_0_2 (= home_2_0 3) (= away_2_0 6)) (and index_2_0_3 (= home_2_0 4) (= away_2_0 5))))
(assert (or (and index_2_1_0 (= home_2_1 2) (= away_2_1 8)) (and index_2_1_1 (= home_2_1 1) (= away_2_1 3)) (and index_2_1_2 (= home_2_1 4) (= away_2_1 7)) (and index_2_1_3 (= home_2_1 5) (= away_2_1 6))))
(assert (or (and index_2_2_0 (= home_2_2 3) (= away_2_2 8)) (and index_2_2_1 (= home_2_2 2) (= away_2_2 4)) (and index_2_2_2 (= home_2_2 1) (= away_2_2 5)) (and index_2_2_3 (= home_2_2 6) (= away_2_2 7))))
(assert (or (and index_2_3_0 (= home_2_3 4) (= away_2_3 8)) (and index_2_3_1 (= home_2_3 3) (= away_2_3 5)) (and index_2_3_2 (= home_2_3 2) (= away_2_3 6)) (and index_2_3_3 (= home_2_3 1) (= away_2_3 7))))
(assert (or (and index_2_4_0 (= home_2_4 5) (= away_2_4 8)) (and index_2_4_1 (= home_2_4 4) (= away_2_4 6)) (and index_2_4_2 (= home_2_4 3) (= away_2_4 7)) (and index_2_4_3 (= home_2_4 1) (= away_2_4 2))))
(assert (or (and index_2_5_0 (= home_2_5 6) (= away_2_5 8)) (and index_2_5_1 (= home_2_5 5) (= away_2_5 7)) (and index_2_5_2 (= home_2_5 1) (= away_2_5 4)) (and index_2_5_3 (= home_2_5 2) (= away_2_5 3))))
(assert (or (and index_2_6_0 (= home_2_6 7) (= away_2_6 8)) (and index_2_6_1 (= home_2_6 1) (= away_2_6 6)) (and index_2_6_2 (= home_2_6 2) (= away_2_6 5)) (and index_2_6_3 (= home_2_6 3) (= away_2_6 4))))
(assert (or (and index_3_0_0 (= home_3_0 1) (= away_3_0 8)) (and index_3_0_1 (= home_3_0 2) (= away_3_0 7)) (and index_3_0_2 (= home_3_0 3) (= away_3_0 6)) (and index_3_0_3 (= home_3_0 4) (= away_3_0 5))))
(assert (or (and index_3_1_0 (= home_3_1 2) (= away_3_1 8)) (and index_3_1_1 (= home_3_1 1) (= away_3_1 3)) (and index_3_1_2 (= home_3_1 4) (= away_3_1 7)) (and index_3_1_3 (= home_3_1 5) (= away_3_1 6))))
(assert (or (and index_3_2_0 (= home_3_2 3) (= away_3_2 8)) (and index_3_2_1 (= home_3_2 2) (= away_3_2 4)) (and index_3_2_2 (= home_3_2 1) (= away_3_2 5)) (and index_3_2_3 (= home_3_2 6) (= away_3_2 7))))
(assert (or (and index_3_3_0 (= home_3_3 4) (= away_3_3 8)) (and index_3_3_1 (= home_3_3 3) (= away_3_3 5)) (and index_3_3_2 (= home_3_3 2) (= away_3_3 6)) (and index_3_3_3 (= home_3_3 1) (= away_3_3 7))))
(assert (or (and index_3_4_0 (= home_3_4 5) (= away_3_4 8)) (and index_3_4_1 (= home_3_4 4) (= away_3_4 6)) (and index_3_4_2 (= home_3_4 3) (= away_3_4 7)) (and index_3_4_3 (= home_3_4 1) (= away_3_4 2))))
(assert (or (and index_3_5_0 (= home_3_5 6) (= away_3_5 8)) (and index_3_5_1 (= home_3_5 5) (= away_3_5 7)) (and index_3_5_2 (= home_3_5 1) (= away_3_5 4)) (and index_3_5_3 (= home_3_5 2) (= away_3_5 3))))
(assert (or (and index_3_6_0 (= home_3_6 7) (= away_3_6 8)) (and index_3_6_1 (= home_3_6 1) (= away_3_6 6)) (and index_3_6_2 (= home_3_6 2) (= away_3_6 5)) (and index_3_6_3 (= home_3_6 3) (= away_3_6 4))))
(assert (<= (+ (ite index_0_0_0 1 0) (ite index_0_1_1 1 0) (ite index_0_2_2 1 0) (ite index_0_3_3 1 0) (ite index_0_4_3 1 0) (ite index_0_5_2 1 0) (ite index_0_6_1 1 0)) 2))
(assert (<= (+ (ite index_1_0_0 1 0) (ite index_1_1_1 1 0) (ite index_1_2_2 1 0) (ite index_1_3_3 1 0) (ite index_1_4_3 1 0) (ite index_1_5_2 1 0) (ite index_1_6_1 1 0)) 2))
(assert (<= (+ (ite index_2_0_0 1 0) (ite index_2_1_1 1 0) (ite index_2_2_2 1 0) (ite index_2_3_3 1 0) (ite index_2_4_3 1 0) (ite index_2_5_2 1 0) (ite index_2_6_1 1 0)) 2))
(assert (<= (+ (ite index_3_0_0 1 0) (ite index_3_1_1 1 0) (ite index_3_2_2 1 0) (ite index_3_3_3 1 0) (ite index_3_4_3 1 0) (ite index_3_5_2 1 0) (ite index_3_6_1 1 0)) 2))
(assert (<= (+ (ite index_0_0_1 1 0) (ite index_0_1_0 1 0) (ite index_0_2_1 1 0) (ite index_0_3_2 1 0) (ite index_0_4_3 1 0) (ite index_0_5_3 1 0) (ite index_0_6_2 1 0)) 2))
(assert (<= (+ (ite index_1_0_1 1 0) (ite index_1_1_0 1 0) (ite index_1_2_1 1 0) (ite index_1_3_2 1 0) (ite index_1_4_3 1 0) (ite index_1_5_3 1 0) (ite index_1_6_2 1 0)) 2))
(assert (<= (+ (ite index_2_0_1 1 0) (ite index_2_1_0 1 0) (ite index_2_2_1 1 0) (ite index_2_3_2 1 0) (ite index_2_4_3 1 0) (ite index_2_5_3 1 0) (ite index_2_6_2 1 0)) 2))
(assert (<= (+ (ite index_3_0_1 1 0) (ite index_3_1_0 1 0) (ite index_3_2_1 1 0) (ite index_3_3_2 1 0) (ite index_3_4_3 1 0) (ite index_3_5_3 1 0) (ite index_3_6_2 1 0)) 2))
(assert (<= (+ (ite index_0_0_2 1 0) (ite index_0_1_1 1 0) (ite index_0_2_0 1 0) (ite index_0_3_1 1 0) (ite index_0_4_2 1 0) (ite index_0_5_3 1 0) (ite index_0_6_3 1 0)) 2))
(assert (<= (+ (ite index_1_0_2 1 0) (ite index_1_1_1 1 0) (ite index_1_2_0 1 0) (ite index_1_3_1 1 0) (ite index_1_4_2 1 0) (ite index_1_5_3 1 0) (ite index_1_6_3 1 0)) 2))
(assert (<= (+ (ite index_2_0_2 1 0) (ite index_2_1_1 1 0) (ite index_2_2_0 1 0) (ite index_2_3_1 1 0) (ite index_2_4_2 1 0) (ite index_2_5_3 1 0) (ite index_2_6_3 1 0)) 2))
(assert (<= (+ (ite index_3_0_2 1 0) (ite index_3_1_1 1 0) (ite index_3_2_0 1 0) (ite index_3_3_1 1 0) (ite index_3_4_2 1 0) (ite index_3_5_3 1 0) (ite index_3_6_3 1 0)) 2))
(assert (<= (+ (ite index_0_0_3 1 0) (ite index_0_1_2 1 0) (ite index_0_2_1 1 0) (ite index_0_3_0 1 0) (ite index_0_4_1 1 0) (ite index_0_5_2 1 0) (ite index_0_6_3 1 0)) 2))
(assert (<= (+ (ite index_1_0_3 1 0) (ite index_1_1_2 1 0) (ite index_1_2_1 1 0) (ite index_1_3_0 1 0) (ite index_1_4_1 1 0) (ite index_1_5_2 1 0) (ite index_1_6_3 1 0)) 2))
(assert (<= (+ (ite index_2_0_3 1 0) (ite index_2_1_2 1 0) (ite index_2_2_1 1 0) (ite index_2_3_0 1 0) (ite index_2_4_1 1 0) (ite index_2_5_2 1 0) (ite index_2_6_3 1 0)) 2))
(assert (<= (+ (ite index_3_0_3 1 0) (ite index_3_1_2 1 0) (ite index_3_2_1 1 0) (ite index_3_3_0 1 0) (ite index_3_4_1 1 0) (ite index_3_5_2 1 0) (ite index_3_6_3 1 0)) 2))
(assert (<= (+ (ite index_0_0_3 1 0) (ite index_0_1_3 1 0) (ite index_0_2_2 1 0) (ite index_0_3_1 1 0) (ite index_0_4_0 1 0) (ite index_0_5_1 1 0) (ite index_0_6_2 1 0)) 2))
(assert (<= (+ (ite index_1_0_3 1 0) (ite index_1_1_3 1 0) (ite index_1_2_2 1 0) (ite index_1_3_1 1 0) (ite index_1_4_0 1 0) (ite index_1_5_1 1 0) (ite index_1_6_2 1 0)) 2))
(assert (<= (+ (ite index_2_0_3 1 0) (ite index_2_1_3 1 0) (ite index_2_2_2 1 0) (ite index_2_3_1 1 0) (ite index_2_4_0 1 0) (ite index_2_5_1 1 0) (ite index_2_6_2 1 0)) 2))
(assert (<= (+ (ite index_3_0_3 1 0) (ite index_3_1_3 1 0) (ite index_3_2_2 1 0) (ite index_3_3_1 1 0) (ite index_3_4_0 1 0) (ite index_3_5_1 1 0) (ite index_3_6_2 1 0)) 2))
(assert (<= (+ (ite index_0_0_2 1 0) (ite index_0_1_3 1 0) (ite index_0_2_3 1 0) (ite index_0_3_2 1 0) (ite index_0_4_1 1 0) (ite index_0_5_0 1 0) (ite index_0_6_1 1 0)) 2))
(assert (<= (+ (ite index_1_0_2 1 0) (ite index_1_1_3 1 0) (ite index_1_2_3 1 0) (ite index_1_3_2 1 0) (ite index_1_4_1 1 0) (ite index_1_5_0 1 0) (ite index_1_6_1 1 0)) 2))
(assert (<= (+ (ite index_2_0_2 1 0) (ite index_2_1_3 1 0) (ite index_2_2_3 1 0) (ite index_2_3_2 1 0) (ite index_2_4_1 1 0) (ite index_2_5_0 1 0) (ite index_2_6_1 1 0)) 2))
(assert (<= (+ (ite index_3_0_2 1 0) (ite index_3_1_3 1 0) (ite index_3_2_3 1 0) (ite index_3_3_2 1 0) (ite index_3_4_1 1 0) (ite index_3_5_0 1 0) (ite index_3_6_1 1 0)) 2))
(assert (<= (+ (ite index_0_0_1 1 0) (ite index_0_1_2 1 0) (ite index_0_2_3 1 0) (ite index_0_3_3 1 0) (ite index_0_4_2 1 0) (ite index_0_5_1 1 0) (ite index_0_6_0 1 0)) 2))
(assert (<= (+ (ite index_1_0_1 1 0) (ite index_1_1_2 1 0) (ite index_1_2_3 1 0) (ite index_1_3_3 1 0) (ite index_1_4_2 1 0) (ite index_1_5_1 1 0) (ite index_1_6_0 1 0)) 2))
(assert (<= (+ (ite index_2_0_1 1 0) (ite index_2_1_2 1 0) (ite index_2_2_3 1 0) (ite index_2_3_3 1 0) (ite index_2_4_2 1 0) (ite index_2_5_1 1 0) (ite index_2_6_0 1 0)) 2))
(assert (<= (+ (ite index_3_0_1 1 0) (ite index_3_1_2 1 0) (ite index_3_2_3 1 0) (ite index_3_3_3 1 0) (ite index_3_4_2 1 0) (ite index_3_5_1 1 0) (ite index_3_6_0 1 0)) 2))
(assert (<= (+ (ite index_0_0_0 1 0) (ite index_0_1_0 1 0) (ite index_0_2_0 1 0) (ite index_0_3_0 1 0) (ite index_0_4_0 1 0) (ite index_0_5_0 1 0) (ite index_0_6_0 1 0)) 2))
(assert (<= (+ (ite index_1_0_0 1 0) (ite index_1_1_0 1 0) (ite index_1_2_0 1 0) (ite index_1_3_0 1 0) (ite index_1_4_0 1 0) (ite index_1_5_0 1 0) (ite index_1_6_0 1 0)) 2))
(assert (<= (+ (ite index_2_0_0 1 0) (ite index_2_1_0 1 0) (ite index_2_2_0 1 0) (ite index_2_3_0 1 0) (ite index_2_4_0 1 0) (ite index_2_5_0 1 0) (ite index_2_6_0 1 0)) 2))
(assert (<= (+ (ite index_3_0_0 1 0) (ite index_3_1_0 1 0) (ite index_3_2_0 1 0) (ite index_3_3_0 1 0) (ite index_3_4_0 1 0) (ite index_3_5_0 1 0) (ite index_3_6_0 1 0)) 2))
(assert index_0_0_0)
(check-sat)
(get-model)